c SaDiCaL SAT Solver
c Copyright (C) 2018 by Armin Biere JKU
c
c Version 00n 481e664a7ffa9a307d3a0dad517daf5dde1989ef
c Compiler Apple clang version 15.0.0 (clang-1500.3.9.4)
c Options gcc -Wall -O3 -DNDEBUG -DNLOG
c proof path 'tests/ph3.prf'
c
c all options have default values
c
c parsing 'tests/ph3.cnf'
c found 'p cnf 12 22' header
c parsed DIMACS in 0.00 seconds
c 
c
c   time      reduced redundant irredundant
c       space  restarts glue    variables
c           level conflicts size  remaining
c
c s 0.00 0.0 0.5 0 0 2 1 1.5 2.0 19 11 92%
c s 0.00 0.0 0.2 0 0 6 1 1.2 1.5 17 10 83%
c s 0.00 0.0 0.2 0 0 7 1 1.2 1.4 14 9 75%
c s 0.00 0.0 0.1 0 0 8 1 1.1 1.3 12 8 67%
c 0 0.00 0.0 0.1 0 0 10 1 1.1 1.2 12 0 0%
c
s UNSATISFIABLE
c
c simplifications:             4           2  conflicts/simplification  100%
c reductions:                  0           0  conflicts/reduction       100%
c restarts:                    0           0  conflicts/restart         100%
c conflicts:                  10        7273  conflicts/sec             100%
c decisions:                   6        4364  decisions/sec              86%
c propagations:               61         0.0  millions/sec               92%
c
c pure:                        0           0% of look-aheads
c look-ahead:                  6         100% of outer decisions         86%
c pruned:                      1          10% of outer conflicts         10%
c generated reducts:           2          50% satisfiable
c average size:                6          31% of all clauses
c pruning failed:              1          50% per reduct
c filter checks:               5          33% of outer satisfied clauses
c average filtered:          1.5          20% per reduct
c assumed literals:            6         1.2  per filter check
c
c collected clauses:        0.00 MB       44% of allocated clauses       68%
c allocated clauses:        0.00 MB        8% of allocated memory        83%
c maximum heap:             0.01 MB        0% of resident set size       66%
c
c looking:                  0.00 sec       0% of process time
c filtering:                0.00 sec       0% of process time
c pruning:                  0.00 sec       1% of process time
c simplifying:              0.00 sec       0% of process time
c
c resident set size:     1104.00 MB
c total process time:       0.00 sec
